NAME : local_3
TYPE : ATSP
DIMENSION : 18
EDGE_WEIGHT_TYPE : EXPLICIT
EDGE_WEIGHT_FORMAT : FULL_MATRIX
EDGE_WEIGHT_SECTION
0 849 837 1162 10000000 10000000 611 690 510 1077 292 631 641 177 10000000 10000000 10000000 855 
0 0 1652 675 10000000 746 1868 10000000 1576 337 872 451 270 979 10000000 10000000 10000000 989 
0 1645 0 10000000 10000000 10000000 279 10000000 386 10000000 738 10000000 10000000 842 10000000 10000000 10000000 10000000 
0 675 10000000 0 10000000 153 10000000 10000000 10000000 552 10000000 530 506 10000000 10000000 10000000 10000000 966 
0 10000000 10000000 10000000 0 10000000 10000000 10000000 10000000 10000000 10000000 10000000 10000000 10000000 10000000 825 594 10000000 
0 746 10000000 153 10000000 0 10000000 10000000 10000000 575 10000000 616 589 10000000 10000000 10000000 10000000 10000000 
0 1489 279 10000000 10000000 10000000 0 929 131 10000000 631 10000000 10000000 641 10000000 10000000 10000000 10000000 
0 10000000 10000000 10000000 10000000 10000000 929 0 807 10000000 782 10000000 10000000 518 10000000 492 986 1008 
0 1432 386 10000000 10000000 10000000 131 807 0 10000000 532 10000000 1143 520 10000000 10000000 10000000 10000000 
0 337 10000000 552 10000000 575 10000000 10000000 10000000 0 1200 620 442 10000000 10000000 10000000 10000000 10000000 
0 898 738 10000000 10000000 10000000 631 782 532 1743 0 927 936 330 10000000 10000000 10000000 10000000 
0 451 10000000 530 10000000 616 10000000 10000000 10000000 620 964 0 191 741 891 10000000 10000000 573 
0 270 10000000 506 10000000 589 10000000 10000000 1439 442 879 191 0 801 10000000 10000000 10000000 758 
0 995 842 10000000 10000000 10000000 641 518 520 10000000 330 741 859 0 10000000 903 10000000 856 
0 10000000 10000000 10000000 10000000 10000000 10000000 10000000 10000000 10000000 10000000 891 10000000 10000000 0 10000000 513 325 
0 10000000 10000000 10000000 825 10000000 10000000 492 10000000 10000000 10000000 10000000 10000000 903 10000000 0 798 10000000 
0 10000000 10000000 10000000 594 10000000 10000000 986 10000000 10000000 10000000 10000000 10000000 10000000 513 798 0 667 
0 989 10000000 966 10000000 10000000 10000000 1010 10000000 10000000 10000000 573 758 856 325 10000000 667 0 
EOF